NAME : ct_6_n_3_k10_t_95
COMMENT : (ct_6_n_3_k10_t_95, Min no of trucks: 3, Optimal value: 648.516593710682, Split: Yes)
TYPE : SDVRP
DIMENSION : 7
EDGE_WEIGHT_TYPE : EUC_2D
CAPACITY : 10
NODE_COORD_SECTION
1 100 100
2 159 30
3 34 131
4 90 45
5 122 92
6 42 42
7 124 142
DEMAND_SECTION
1 0
2 4.8
3 6.0
4 3.6
5 3.2
6 4.4
7 6.5
DEPOT_SECTION
 1
EOF